   Al  O                                
   1.0000000000000000     
     9.0319527979870280    0.0000000000000000    0.0000000000000000
     0.0000000000000000    9.2886293002251765    0.0000000000000000
     0.0000000000000000    0.0000000000000000    6.6016006095408839
   Al   O 
    32    48
Selective dynamics
Direct
  0.1261505048008331  0.0156972163902793  0.3899883679678453   T   T   T
  0.1261505048008331  0.5156972275961564  0.3899883679678453   T   T   T
  0.6261505196553259  0.0156972163902793  0.3899883679678453   T   T   T
  0.6261505196553259  0.5156972275961564  0.3899883679678453   T   T   T
  0.1261505048008331  0.2343027873407948  0.6100116022350122   T   T   T
  0.1261505048008331  0.7343027724417865  0.6100116022350122   T   T   T
  0.6261505196553259  0.2343027873407948  0.6100116022350122   T   T   T
  0.6261505196553259  0.7343027724417865  0.6100116022350122   T   T   T
  0.1238494952381899  0.2656972276088041  0.1100116097305701   T   T   T
  0.1238494952381899  0.7656972275835088  0.1100116097305701   T   T   T
  0.6238494803316641  0.2656972276088041  0.1100116097305701   T   T   T
  0.6238494803316641  0.7656972275835088  0.1100116097305701   T   T   T
  0.1238494952381899  0.4843027723532529  0.8899883977721075   T   T   T
  0.1238494952381899  0.9843027724291389  0.8899883977721075   T   T   T
  0.6238494803316641  0.4843027723532529  0.8899883977721075   T   T   T
  0.6238494803316641  0.9843027724291389  0.8899883977721075   T   T   T
  0.3738494802926482  0.4843027723532529  0.6100116022350122   T   T   T
  0.3738494802926482  0.9843027724291389  0.6100116022350122   T   T   T
  0.8738494802666281  0.4843027723532529  0.6100116022350122   T   T   T
  0.8738494802666281  0.9843027724291389  0.6100116022350122   T   T   T
  0.3738494802926482  0.2656972276088041  0.3899883679678453   T   T   T
  0.3738494802926482  0.7656972275835088  0.3899883679678453   T   T   T
  0.8738494802666281  0.2656972276088041  0.3899883679678453   T   T   T
  0.8738494802666281  0.7656972275835088  0.3899883679678453   T   T   T
  0.3761505197203618  0.2343027873407948  0.8899883977721075   T   T   T
  0.3761505197203618  0.7343027724417865  0.8899883977721075   T   T   T
  0.8761505196943489  0.2343027873407948  0.8899883977721075   T   T   T
  0.8761505196943489  0.7343027724417865  0.8899883977721075   T   T   T
  0.3761505197203618  0.0156972163902793  0.1100116097305701   T   T   T
  0.3761505197203618  0.5156972275961564  0.1100116097305701   T   T   T
  0.8761505196943489  0.0156972163902793  0.1100116097305701   T   T   T
  0.8761505196943489  0.5156972275961564  0.1100116097305701   T   T   T
  0.0535362653381384  0.0511954994940211  0.6541485612602713   T   T   T
  0.0535362653381384  0.5511955293173258  0.6541485612602713   T   T   T
  0.5535362430433963  0.0511954994940211  0.6541485612602713   T   T   T
  0.5535362430433963  0.5511955293173258  0.6541485612602713   T   T   T
  0.0535362653381384  0.1988045004933312  0.3458514685938141   T   T   T
  0.0535362653381384  0.6988044707206171  0.3458514685938141   T   T   T
  0.5535362430433963  0.1988045004933312  0.3458514685938141   T   T   T
  0.5535362430433963  0.6988044707206171  0.3458514685938141   T   T   T
  0.1964637272086023  0.3011954994813735  0.8458514387468412   T   T   T
  0.1964637272086023  0.8011955293046782  0.8458514387468412   T   T   T
  0.6964636974215779  0.3011954994813735  0.8458514387468412   T   T   T
  0.6964636974215779  0.8011955293046782  0.8458514387468412   T   T   T
  0.1964637272086023  0.4488045004806835  0.1541485165076111   T   T   T
  0.1964637272086023  0.9488044707079695  0.1541485165076111   T   T   T
  0.6964636974215779  0.4488045004806835  0.1541485165076111   T   T   T
  0.6964636974215779  0.9488044707079695  0.1541485165076111   T   T   T
  0.4464637570086296  0.4488045004806835  0.3458514685938141   T   T   T
  0.4464637570086296  0.9488044707079695  0.3458514685938141   T   T   T
  0.9464637569826166  0.4488045004806835  0.3458514685938141   T   T   T
  0.9464637569826166  0.9488044707079695  0.3458514685938141   T   T   T
  0.4464637570086296  0.3011954994813735  0.6541485612602713   T   T   T
  0.4464637570086296  0.8011955293046782  0.6541485612602713   T   T   T
  0.9464637569826166  0.3011954994813735  0.6541485612602713   T   T   T
  0.9464637569826166  0.8011955293046782  0.6541485612602713   T   T   T
  0.3035362430043733  0.1988045004933312  0.1541485165076111   T   T   T
  0.3035362430043733  0.6988044707206171  0.1541485165076111   T   T   T
  0.8035362429783603  0.1988045004933312  0.1541485165076111   T   T   T
  0.8035362429783603  0.6988044707206171  0.1541485165076111   T   T   T
  0.3035362430043733  0.0511954994940211  0.8458514387468412   T   T   T
  0.3035362430043733  0.5511955293173258  0.8458514387468412   T   T   T
  0.8035362429783603  0.0511954994940211  0.8458514387468412   T   T   T
  0.8035362429783603  0.5511955293173258  0.8458514387468412   T   T   T
  0.0250940235968997  0.1250000000442668  0.0000000000000000   T   T   T
  0.0250940235968997  0.6250000000189715  0.0000000000000000   T   T   T
  0.5250940496898195  0.1250000000442668  0.0000000000000000   T   T   T
  0.5250940496898195  0.6250000000189715  0.0000000000000000   T   T   T
  0.2249059800842019  0.3750000000316192  0.5000000000498304   T   T   T
  0.2249059800842019  0.8750000000063238  0.5000000000498304   T   T   T
  0.7249060099232523  0.3750000000316192  0.5000000000498304   T   T   T
  0.7249060099232523  0.8750000000063238  0.5000000000498304   T   T   T
  0.4749059502581545  0.3750000000316192  0.0000000000000000   T   T   T
  0.4749059502581545  0.8750000000063238  0.0000000000000000   T   T   T
  0.9749059502321415  0.3750000000316192  0.0000000000000000   T   T   T
  0.9749059502321415  0.8750000000063238  0.0000000000000000   T   T   T
  0.2750940497548555  0.1250000000442668  0.5000000000498304   T   T   T
  0.2750940497548555  0.6250000000189715  0.5000000000498304   T   T   T
  0.7750940497288354  0.1250000000442668  0.5000000000498304   T   T   T
  0.7750940497288354  0.6250000000189715  0.5000000000498304   T   T   T

  0.00000000E+00  0.00000000E+00  0.00000000E+00
  0.00000000E+00  0.00000000E+00  0.00000000E+00
  0.00000000E+00  0.00000000E+00  0.00000000E+00
  0.00000000E+00  0.00000000E+00  0.00000000E+00
  0.00000000E+00  0.00000000E+00  0.00000000E+00
  0.00000000E+00  0.00000000E+00  0.00000000E+00
  0.00000000E+00  0.00000000E+00  0.00000000E+00
  0.00000000E+00  0.00000000E+00  0.00000000E+00
  0.00000000E+00  0.00000000E+00  0.00000000E+00
  0.00000000E+00  0.00000000E+00  0.00000000E+00
  0.00000000E+00  0.00000000E+00  0.00000000E+00
  0.00000000E+00  0.00000000E+00  0.00000000E+00
  0.00000000E+00  0.00000000E+00  0.00000000E+00
  0.00000000E+00  0.00000000E+00  0.00000000E+00
  0.00000000E+00  0.00000000E+00  0.00000000E+00
  0.00000000E+00  0.00000000E+00  0.00000000E+00
  0.00000000E+00  0.00000000E+00  0.00000000E+00
  0.00000000E+00  0.00000000E+00  0.00000000E+00
  0.00000000E+00  0.00000000E+00  0.00000000E+00
  0.00000000E+00  0.00000000E+00  0.00000000E+00
  0.00000000E+00  0.00000000E+00  0.00000000E+00
  0.00000000E+00  0.00000000E+00  0.00000000E+00
  0.00000000E+00  0.00000000E+00  0.00000000E+00
  0.00000000E+00  0.00000000E+00  0.00000000E+00
  0.00000000E+00  0.00000000E+00  0.00000000E+00
  0.00000000E+00  0.00000000E+00  0.00000000E+00
  0.00000000E+00  0.00000000E+00  0.00000000E+00
  0.00000000E+00  0.00000000E+00  0.00000000E+00
  0.00000000E+00  0.00000000E+00  0.00000000E+00
  0.00000000E+00  0.00000000E+00  0.00000000E+00
  0.00000000E+00  0.00000000E+00  0.00000000E+00
  0.00000000E+00  0.00000000E+00  0.00000000E+00
  0.00000000E+00  0.00000000E+00  0.00000000E+00
  0.00000000E+00  0.00000000E+00  0.00000000E+00
  0.00000000E+00  0.00000000E+00  0.00000000E+00
  0.00000000E+00  0.00000000E+00  0.00000000E+00
  0.00000000E+00  0.00000000E+00  0.00000000E+00
  0.00000000E+00  0.00000000E+00  0.00000000E+00
  0.00000000E+00  0.00000000E+00  0.00000000E+00
  0.00000000E+00  0.00000000E+00  0.00000000E+00
  0.00000000E+00  0.00000000E+00  0.00000000E+00
  0.00000000E+00  0.00000000E+00  0.00000000E+00
  0.00000000E+00  0.00000000E+00  0.00000000E+00
  0.00000000E+00  0.00000000E+00  0.00000000E+00
  0.00000000E+00  0.00000000E+00  0.00000000E+00
  0.00000000E+00  0.00000000E+00  0.00000000E+00
  0.00000000E+00  0.00000000E+00  0.00000000E+00
  0.00000000E+00  0.00000000E+00  0.00000000E+00
  0.00000000E+00  0.00000000E+00  0.00000000E+00
  0.00000000E+00  0.00000000E+00  0.00000000E+00
  0.00000000E+00  0.00000000E+00  0.00000000E+00
  0.00000000E+00  0.00000000E+00  0.00000000E+00
  0.00000000E+00  0.00000000E+00  0.00000000E+00
  0.00000000E+00  0.00000000E+00  0.00000000E+00
  0.00000000E+00  0.00000000E+00  0.00000000E+00
  0.00000000E+00  0.00000000E+00  0.00000000E+00
  0.00000000E+00  0.00000000E+00  0.00000000E+00
  0.00000000E+00  0.00000000E+00  0.00000000E+00
  0.00000000E+00  0.00000000E+00  0.00000000E+00
  0.00000000E+00  0.00000000E+00  0.00000000E+00
  0.00000000E+00  0.00000000E+00  0.00000000E+00
  0.00000000E+00  0.00000000E+00  0.00000000E+00
  0.00000000E+00  0.00000000E+00  0.00000000E+00
  0.00000000E+00  0.00000000E+00  0.00000000E+00
  0.00000000E+00  0.00000000E+00  0.00000000E+00
  0.00000000E+00  0.00000000E+00  0.00000000E+00
  0.00000000E+00  0.00000000E+00  0.00000000E+00
  0.00000000E+00  0.00000000E+00  0.00000000E+00
  0.00000000E+00  0.00000000E+00  0.00000000E+00
  0.00000000E+00  0.00000000E+00  0.00000000E+00
  0.00000000E+00  0.00000000E+00  0.00000000E+00
  0.00000000E+00  0.00000000E+00  0.00000000E+00
  0.00000000E+00  0.00000000E+00  0.00000000E+00
  0.00000000E+00  0.00000000E+00  0.00000000E+00
  0.00000000E+00  0.00000000E+00  0.00000000E+00
  0.00000000E+00  0.00000000E+00  0.00000000E+00
  0.00000000E+00  0.00000000E+00  0.00000000E+00
  0.00000000E+00  0.00000000E+00  0.00000000E+00
  0.00000000E+00  0.00000000E+00  0.00000000E+00
  0.00000000E+00  0.00000000E+00  0.00000000E+00
