   Al  O                                
   1.00000000000000     
     4.7905297257741530    0.0000000000000000    0.0000000000000000
     0.0000000000000000    4.9267797381749725    0.0000000000000000
     0.0000000000000000    0.0000000000000000    7.0030902189723401
   Al   O 
     8    12
Selective dynamics
Direct
  0.2523002353554062  0.0313963657290515  0.3899885770513194   T   T   T
  0.2523002353554062  0.4686036324055038  0.6100114229768963   T   T   T
  0.2476997646445938  0.5313963676747306  0.1100114080825492   T   T   T
  0.2476997646445938  0.9686036323453280  0.8899885769948952   T   T   T
  0.7476997349350825  0.9686036323453280  0.6100114229768963   T   T   T
  0.7476997349350825  0.5313963676747306  0.3899885770513194   T   T   T
  0.7523002650649175  0.4686036324055038  0.8899885769948952   T   T   T
  0.7523002650649175  0.0313963657290515  0.1100114080825492   T   T   T
  0.1070727541729042  0.1023897509358207  0.6541476566137376   T   T   T
  0.1070727541729042  0.3976102415823419  0.3458523434144709   T   T   T
  0.3929272383997144  0.6023897286106461  0.8458523433580538   T   T   T
  0.3929272383997144  0.8976102714094125  0.1541476417193977   T   T   T
  0.8929272683155318  0.8976102714094125  0.3458523434144709   T   T   T
  0.8929272683155318  0.6023897286106461  0.6541476566137376   T   T   T
  0.6070727316844682  0.3976102415823419  0.1541476417193977   T   T   T
  0.6070727316844682  0.1023897509358207  0.8458523433580538   T   T   T
  0.0501883691512148  0.2500000000702016  0.0000000000000000   T   T   T
  0.4498116347687926  0.7500000000100329  0.4999999999435829   T   T   T
  0.9498116048529681  0.7500000000100329  0.0000000000000000   T   T   T
  0.5501883951470319  0.2500000000702016  0.4999999999435829   T   T   T
 
  0.00000000E+00  0.00000000E+00  0.00000000E+00
  0.00000000E+00  0.00000000E+00  0.00000000E+00
  0.00000000E+00  0.00000000E+00  0.00000000E+00
  0.00000000E+00  0.00000000E+00  0.00000000E+00
  0.00000000E+00  0.00000000E+00  0.00000000E+00
  0.00000000E+00  0.00000000E+00  0.00000000E+00
  0.00000000E+00  0.00000000E+00  0.00000000E+00
  0.00000000E+00  0.00000000E+00  0.00000000E+00
  0.00000000E+00  0.00000000E+00  0.00000000E+00
  0.00000000E+00  0.00000000E+00  0.00000000E+00
  0.00000000E+00  0.00000000E+00  0.00000000E+00
  0.00000000E+00  0.00000000E+00  0.00000000E+00
  0.00000000E+00  0.00000000E+00  0.00000000E+00
  0.00000000E+00  0.00000000E+00  0.00000000E+00
  0.00000000E+00  0.00000000E+00  0.00000000E+00
  0.00000000E+00  0.00000000E+00  0.00000000E+00
  0.00000000E+00  0.00000000E+00  0.00000000E+00
  0.00000000E+00  0.00000000E+00  0.00000000E+00
  0.00000000E+00  0.00000000E+00  0.00000000E+00
  0.00000000E+00  0.00000000E+00  0.00000000E+00
