   Al  O                                
   1.00000000000000     
     9.6084604233904560    0.0000000000000000    0.0000000000000000
     0.0000000000000000    9.8815205321544433    0.0000000000000000
     0.0000000000000000    0.0000000000000000    7.0229793718520046
   Al   O 
    32    48
Selective dynamics
Direct
  0.1284776572732631  0.0072661002359040  0.3905381409152330   T   T   T
  0.1236301165979711  0.5050299417607440  0.3960648690229713   T   T   T
  0.6352014054765832  0.0079440365399176  0.3925465251357951   T   T   T
  0.6265801690099080  0.5135784728014265  0.3881070453071107   T   T   T
  0.1236406723572228  0.2292202921623286  0.6170178049264423   T   T   T
  0.1235531402113981  0.7284182943483499  0.6039069546010367   T   T   T
  0.6145513487014094  0.2217714559030615  0.6098743693576846   T   T   T
  0.6208435529795251  0.7324479778447441  0.6300865033752260   T   T   T
  0.1229977856478956  0.2547083986864820  0.1256271785846103   T   T   T
  0.1260366469592364  0.7586682380463193  0.1232789397390697   T   T   T
  0.6237888026969554  0.2695924443657950  0.1107567878834108   T   T   T
  0.6178285673035550  0.7558980702205846  0.0964986225296312   T   T   T
  0.1162076823711381  0.4823915238117039  0.8877310789472908   T   T   T
  0.1193980581212747  0.9742880645883387  0.8840637762223946   T   T   T
  0.6225032898738522  0.4757318499819608  0.8803416983418219   T   T   T
  0.6179045408415970  0.9825633562457377  0.8907798966412522   T   T   T
  0.3726444964776132  0.4716411415362192  0.6105588168431951   T   T   T
  0.3755365740059219  0.9796566409297861  0.6120353080666149   T   T   T
  0.8662280063467750  0.4807144070161509  0.6191339912002571   T   T   T
  0.8675322571999560  0.9828533193455868  0.6164413765188745   T   T   T
  0.3790948676793445  0.2560617596354404  0.3965964958788004   T   T   T
  0.3807657861593914  0.7611986107940542  0.3955528297773350   T   T   T
  0.8701502732664785  0.2642616469191876  0.3992783612662933   T   T   T
  0.8713918317059497  0.7719455995276369  0.3883777468220286   T   T   T
  0.3688503572405241  0.2280458821748389  0.9010783153857772   T   T   T
  0.3650828784574311  0.7226180004284048  0.8998711339605870   T   T   T
  0.8736286364469843  0.2380851157431953  0.9005188599424607   T   T   T
  0.8791892482204031  0.7327153785078219  0.8848224777524336   T   T   T
  0.3794499128361809  0.0094082543895315  0.1234795372949147   T   T   T
  0.3783940971196882  0.5075120582070768  0.1190646404961068   T   T   T
  0.8754918736321581  0.0172216732955596  0.0906328332355704   T   T   T
  0.8785955111701453  0.5176844079458360  0.1123341783864379   T   T   T
  0.0389101070313847  0.0463377851069957  0.6516779268036563   T   T   T
  0.0486788130856886  0.5452726222530637  0.6441715144360267   T   T   T
  0.5459031004695567  0.0459407381413739  0.6612923677006652   T   T   T
  0.5513323689499008  0.5399594998382873  0.6581246503058208   T   T   T
  0.0562627306026558  0.1969467106185383  0.3506230724079841   T   T   T
  0.0410299844609060  0.6933783686792502  0.3469614365722418   T   T   T
  0.5543575108079036  0.1945488739263259  0.3520894566519729   T   T   T
  0.5584526739011622  0.6988606321170163  0.3544603583898659   T   T   T
  0.1916394334742872  0.2927750997407663  0.8473611608704522   T   T   T
  0.1911943490031533  0.7946523891657059  0.8439916986128367   T   T   T
  0.6876190021615003  0.2907766525989659  0.8535295093816548   T   T   T
  0.6940162141293157  0.7963944043192530  0.8505359227322071   T   T   T
  0.1916795475467141  0.4405909320629905  0.1639755472024262   T   T   T
  0.1950648415858300  0.9353315172138827  0.1581191166281994   T   T   T
  0.7026106821828949  0.4429221723844529  0.1506441329422496   T   T   T
  0.6999092614639352  0.9415118912472430  0.1565471851289492   T   T   T
  0.4442172617186617  0.4505414390345575  0.3503441974638093   T   T   T
  0.4514562283267810  0.9478342889279715  0.3520784989346412   T   T   T
  0.9468558921881207  0.4419016391240848  0.3469931901975372   T   T   T
  0.9413745827179220  0.9486534834588889  0.3516628670634693   T   T   T
  0.4417734185026707  0.3002146724143281  0.6515127639361844   T   T   T
  0.4484477047437814  0.7855033616640865  0.6666587459544314   T   T   T
  0.9449855944509010  0.3033492314357538  0.6508480060609242   T   T   T
  0.9533261002738300  0.7906606734200684  0.6556863745111268   T   T   T
  0.3062104607427389  0.1930087151144430  0.1722992778841227   T   T   T
  0.3048717552299760  0.6869583316337016  0.1612447979985913   T   T   T
  0.7972457753203676  0.1967741496501386  0.1591436932081711   T   T   T
  0.8051364206612150  0.6922271821224951  0.1526754674563519   T   T   T
  0.3049651879216370  0.0366798474361134  0.8504028690975317   T   T   T
  0.3001794236644034  0.5451470959949197  0.8487213870022440   T   T   T
  0.7912828213990790  0.0438241527709088  0.8409708267402928   T   T   T
  0.7956673810609403  0.5502737094927004  0.8434918521890394   T   T   T
  0.0192723295711678  0.1212821244776654  0.0001667200460148   T   T   T
  0.0320707481220671  0.6207543813392067 -0.0040577749541036   T   T   T
  0.5198195896337718  0.1257108342760708  0.0094136872654385   T   T   T
  0.5203724516191002  0.6141528119152179  0.0073681586629608   T   T   T
  0.2228556900416850  0.3649498061049222  0.5014611164046423   T   T   T
  0.2292496756265646  0.8711871879980633  0.5103321734611338   T   T   T
  0.7119135315806423  0.3617804120912222  0.5002257539123657   T   T   T
  0.7226088336889496  0.8701787810212750  0.5047480381587321   T   T   T
  0.4721501627754519  0.3700293609522848 -0.0035403531596863   T   T   T
  0.4661570951591992  0.8642176016429606  0.0076439966996981   T   T   T
  0.9635131963939886  0.3754552705873954 -0.0023510620022941   T   T   T
  0.9711566061591362  0.8696508975524541  0.0064922464365240   T   T   T
  0.2775684033104868  0.1109532077052222  0.5045969714411239   T   T   T
  0.2717160208724704  0.6199766992515058  0.4957589205298770   T   T   T
  0.7697931390593968  0.1240577999961044  0.5088038384710530   T   T   T
  0.7834729542346497  0.6198086123650429  0.4940436167069862   T   T   T
 
  0.33236888E-02  0.41731696E-02  0.67507646E-03
 -0.15359318E-02  0.38877858E-04 -0.89535968E-03
  0.25466518E-03  0.10056710E-03 -0.29854416E-02
  0.22415027E-02 -0.51562003E-02  0.12290183E-02
  0.65015761E-04 -0.11267162E-02 -0.97034954E-02
  0.10181130E-02  0.56160337E-02  0.53673044E-03
  0.36098619E-02  0.28983999E-03 -0.54903164E-03
 -0.56186474E-02 -0.16878889E-02  0.34304259E-02
  0.25093653E-03 -0.50816105E-02 -0.56146184E-02
 -0.83474510E-03  0.88388504E-03  0.25581149E-02
 -0.46229468E-03 -0.85882286E-03  0.14647297E-02
 -0.37953591E-02  0.20829190E-03 -0.28627709E-02
 -0.22065320E-02  0.28702299E-02 -0.50981578E-02
  0.34169662E-02 -0.35552752E-02 -0.82051962E-03
 -0.51289759E-02  0.30138978E-02 -0.12795579E-03
  0.11924412E-02 -0.12754119E-02 -0.36708598E-02
 -0.10434263E-03 -0.41593017E-02  0.10511380E-02
  0.57418998E-02  0.17473725E-02  0.63796494E-02
 -0.11800199E-02 -0.49856135E-02  0.14447921E-02
 -0.14999424E-02  0.79025932E-03 -0.19404731E-02
 -0.38603746E-02 -0.64310580E-02  0.31841415E-02
 -0.76193688E-02  0.35001914E-02 -0.54800576E-02
  0.12650993E-02 -0.26960150E-02 -0.35668984E-02
  0.27882741E-02  0.55217867E-02  0.52976251E-03
  0.29883087E-02 -0.69945330E-03 -0.55294448E-02
 -0.52386207E-03 -0.44894541E-03  0.50572849E-02
 -0.30623581E-02  0.13014251E-02 -0.60311899E-03
 -0.11412504E-02  0.14232576E-02  0.99524834E-03
 -0.31908944E-02 -0.63284490E-03 -0.42259476E-02
 -0.94109169E-03  0.31275054E-02 -0.17766253E-02
 -0.20485377E-03  0.29545314E-02  0.36930410E-02
  0.31672098E-02  0.22568322E-02  0.48881774E-02
  0.21328107E-02  0.33780193E-02  0.41978625E-03
  0.10627796E-01  0.23118109E-03  0.84540872E-03
 -0.10324501E-01 -0.30414471E-02 -0.60840215E-02
  0.46556954E-02 -0.41948698E-02  0.78913990E-02
 -0.45514441E-02  0.41514504E-02 -0.22148424E-02
  0.70370914E-02  0.43850243E-02  0.49884446E-02
  0.37311935E-02 -0.28484150E-02 -0.33338024E-02
  0.18685577E-02 -0.14796246E-02  0.37531704E-02
  0.38804224E-03 -0.28978890E-02 -0.22957602E-02
 -0.21939735E-02  0.11013076E-02 -0.36162371E-02
  0.64532614E-02  0.15853825E-02 -0.26820194E-04
 -0.39263428E-02  0.35616549E-02 -0.15215190E-02
 -0.24051176E-02 -0.96196734E-03 -0.34124651E-02
  0.48950894E-02 -0.31482704E-02  0.32818492E-02
 -0.23635885E-02  0.23445198E-02 -0.18518252E-02
 -0.27839436E-03  0.11802892E-02 -0.26591023E-02
  0.40069653E-02  0.36523987E-02  0.19159639E-02
  0.16968103E-02  0.31826462E-03 -0.62683020E-02
 -0.25101497E-02 -0.48039484E-02  0.45510218E-02
 -0.10997086E-02 -0.35263418E-02  0.38953845E-02
 -0.28934239E-03 -0.10252344E-01 -0.24459494E-02
  0.61346378E-03  0.56190476E-02 -0.13953596E-02
 -0.15058952E-02  0.18281849E-02  0.50053274E-02
 -0.12101068E-02 -0.46896066E-03  0.25697695E-02
  0.80247283E-03  0.37528705E-02  0.64552279E-02
 -0.14485319E-02  0.42498127E-02 -0.22864525E-02
  0.11877030E-02 -0.63171273E-04 -0.18068462E-02
  0.53468262E-02  0.32927576E-02 -0.59697750E-02
 -0.77110274E-02 -0.53993253E-02 -0.69209372E-04
 -0.69268744E-03 -0.35664332E-04  0.12066797E-02
  0.46113498E-02 -0.32655190E-02  0.66987157E-02
  0.33719729E-02  0.31389199E-02  0.83210965E-03
 -0.31338920E-02  0.30915778E-02  0.73932351E-02
 -0.16978382E-04  0.10837217E-02  0.26848654E-02
  0.53078367E-02 -0.15875878E-02  0.31705671E-02
  0.93336734E-03  0.13882167E-02  0.42684388E-02
  0.57525335E-02 -0.21875300E-02 -0.51930025E-02
 -0.16822658E-02 -0.45607481E-02  0.83335763E-02
 -0.28074159E-02  0.51381458E-02  0.36964854E-02
  0.41649474E-02  0.54693997E-02  0.46615397E-02
 -0.16321557E-02  0.31788322E-03  0.23502395E-02
  0.43191298E-02 -0.10300856E-02 -0.26785069E-02
 -0.19042154E-02 -0.16790654E-02 -0.40574270E-03
 -0.82458862E-03 -0.44603314E-02 -0.20189628E-02
 -0.94755627E-02  0.58165270E-03  0.51172124E-02
  0.55311059E-02 -0.21239795E-02  0.12744126E-02
 -0.58169942E-02 -0.19412907E-02  0.36747429E-02
  0.45542865E-02 -0.21987049E-02 -0.67639045E-02
 
           1
  0.500000000000000     
 -0.11190788E+01  0.38033266E-02  0.32036509E-02 -0.11225823E+01
  0.12865061E+00  0.74772605E-02  0.39058620E+00
  0.12355019E+00  0.50503191E+00  0.39600112E+00
  0.63521466E+00  0.79491252E-02  0.39233398E+00
  0.62669681E+00  0.51331757E+00  0.38819455E+00
  0.12364406E+00  0.22916328E+00  0.61632697E+00
  0.12360612E+00  0.72870246E+00  0.60394517E+00
  0.61473920E+00  0.22178612E+00  0.60983528E+00
  0.62055117E+00  0.73236257E+00  0.63033073E+00
  0.12301084E+00  0.25445127E+00  0.12522745E+00
  0.12599321E+00  0.75871296E+00  0.12346106E+00
  0.62376475E+00  0.26954899E+00  0.11086107E+00
  0.61763107E+00  0.75590861E+00  0.96294808E-01
  0.11609286E+00  0.48253676E+00  0.88736812E+00
  0.11957587E+00  0.97410817E+00  0.88400536E+00
  0.62223639E+00  0.47588435E+00  0.88033259E+00
  0.61796659E+00  0.98249882E+00  0.89051855E+00
  0.37263907E+00  0.47143068E+00  0.61063365E+00
  0.37583537E+00  0.97974506E+00  0.61248951E+00
  0.86616660E+00  0.48046214E+00  0.61923685E+00
  0.86745420E+00  0.98289331E+00  0.61630322E+00
  0.37889398E+00  0.25573635E+00  0.39682319E+00
  0.38036929E+00  0.76137572E+00  0.39516268E+00
  0.87021611E+00  0.26412523E+00  0.39902442E+00
  0.87153693E+00  0.77222500E+00  0.38841546E+00
  0.36900586E+00  0.22801049E+00  0.90068465E+00
  0.36505562E+00  0.72259528E+00  0.90023119E+00
  0.87346928E+00  0.23815097E+00  0.90047592E+00
  0.87912986E+00  0.73278739E+00  0.88489333E+00
  0.37928387E+00  0.93762328E-02  0.12317867E+00
  0.37834513E+00  0.50767031E+00  0.11893815E+00
  0.87548121E+00  0.17371171E-01  0.90895759E-01
  0.87876032E+00  0.51779860E+00  0.11268219E+00
  0.39021093E-01  0.46508711E-01  0.65170781E+00
  0.49231857E-01  0.54528432E+00  0.64423170E+00
  0.54536584E+00  0.45786842E-01  0.66085922E+00
  0.55157464E+00  0.53974724E+00  0.65868648E+00
  0.56025885E-01  0.19715677E+00  0.35046539E+00
  0.41396177E-01  0.69360025E+00  0.34731659E+00
  0.55455167E+00  0.19440475E+00  0.35185211E+00
  0.55854991E+00  0.69878576E+00  0.35472756E+00
  0.19165963E+00  0.29262847E+00  0.84719771E+00
  0.19108018E+00  0.79470811E+00  0.84373424E+00
  0.68795481E+00  0.29085687E+00  0.85352760E+00
  0.69381190E+00  0.79657462E+00  0.85042760E+00
  0.19155439E+00  0.44054226E+00  0.16373260E+00
  0.19531957E+00  0.93517222E+00  0.15835277E+00
  0.70248769E+00  0.44304080E+00  0.15051229E+00
  0.69989477E+00  0.94157161E+00  0.15635787E+00
  0.44442577E+00  0.45072625E+00  0.35048060E+00
  0.45154453E+00  0.94785039E+00  0.35163223E+00
  0.94672527E+00  0.44165856E+00  0.34731720E+00
  0.94131736E+00  0.94847505E+00  0.35194020E+00
  0.44175836E+00  0.29969591E+00  0.65133862E+00
  0.44847963E+00  0.78578768E+00  0.66655940E+00
  0.94490723E+00  0.30344174E+00  0.65120436E+00
  0.95326313E+00  0.79063694E+00  0.65586933E+00
  0.30625222E+00  0.19319861E+00  0.17275886E+00
  0.30479638E+00  0.68717337E+00  0.16108201E+00
  0.79730758E+00  0.19677095E+00  0.15901506E+00
  0.80541466E+00  0.69239379E+00  0.15225045E+00
  0.30456393E+00  0.36406644E-01  0.85039794E+00
  0.30014338E+00  0.54514529E+00  0.84880730E+00
  0.79152278E+00  0.43658919E-01  0.84144774E+00
  0.79584285E+00  0.55043254E+00  0.84355109E+00
  0.19109250E-01  0.12143856E+00  0.69308035E-03
  0.32069865E-01  0.62080922E+00  0.99613337E+00
  0.52009580E+00  0.12563050E+00  0.96394153E-02
  0.52042102E+00  0.61422305E+00  0.76720495E-02
  0.22315504E+00  0.36483912E+00  0.50109140E+00
  0.22916213E+00  0.87095642E+00  0.51092548E+00
  0.71176744E+00  0.36204040E+00  0.50048892E+00
  0.72282557E+00  0.87045553E+00  0.50507992E+00
  0.47206523E+00  0.37004545E+00  0.99662697E+00
  0.46638185E+00  0.86416548E+00  0.74533008E-02
  0.96341411E+00  0.37537031E+00  0.99762005E+00
  0.97111370E+00  0.86942521E+00  0.63485067E-02
  0.27707532E+00  0.11098264E+00  0.50496129E+00
  0.27200385E+00  0.61986923E+00  0.49584965E+00
  0.76949044E+00  0.12395957E+00  0.50906546E+00
  0.78370995E+00  0.61969736E+00  0.49356206E+00
  0.00000000E+00  0.00000000E+00  0.00000000E+00
  0.00000000E+00  0.00000000E+00  0.00000000E+00
  0.00000000E+00  0.00000000E+00  0.00000000E+00
  0.00000000E+00  0.00000000E+00  0.00000000E+00
  0.00000000E+00  0.00000000E+00  0.00000000E+00
  0.00000000E+00  0.00000000E+00  0.00000000E+00
  0.00000000E+00  0.00000000E+00  0.00000000E+00
  0.00000000E+00  0.00000000E+00  0.00000000E+00
  0.00000000E+00  0.00000000E+00  0.00000000E+00
  0.00000000E+00  0.00000000E+00  0.00000000E+00
  0.00000000E+00  0.00000000E+00  0.00000000E+00
  0.00000000E+00  0.00000000E+00  0.00000000E+00
  0.00000000E+00  0.00000000E+00  0.00000000E+00
  0.00000000E+00  0.00000000E+00  0.00000000E+00
  0.00000000E+00  0.00000000E+00  0.00000000E+00
  0.00000000E+00  0.00000000E+00  0.00000000E+00
  0.00000000E+00  0.00000000E+00  0.00000000E+00
  0.00000000E+00  0.00000000E+00  0.00000000E+00
  0.00000000E+00  0.00000000E+00  0.00000000E+00
  0.00000000E+00  0.00000000E+00  0.00000000E+00
  0.00000000E+00  0.00000000E+00  0.00000000E+00
  0.00000000E+00  0.00000000E+00  0.00000000E+00
  0.00000000E+00  0.00000000E+00  0.00000000E+00
  0.00000000E+00  0.00000000E+00  0.00000000E+00
  0.00000000E+00  0.00000000E+00  0.00000000E+00
  0.00000000E+00  0.00000000E+00  0.00000000E+00
  0.00000000E+00  0.00000000E+00  0.00000000E+00
  0.00000000E+00  0.00000000E+00  0.00000000E+00
  0.00000000E+00  0.00000000E+00  0.00000000E+00
  0.00000000E+00  0.00000000E+00  0.00000000E+00
  0.00000000E+00  0.00000000E+00  0.00000000E+00
  0.00000000E+00  0.00000000E+00  0.00000000E+00
  0.00000000E+00  0.00000000E+00  0.00000000E+00
  0.00000000E+00  0.00000000E+00  0.00000000E+00
  0.00000000E+00  0.00000000E+00  0.00000000E+00
  0.00000000E+00  0.00000000E+00  0.00000000E+00
  0.00000000E+00  0.00000000E+00  0.00000000E+00
  0.00000000E+00  0.00000000E+00  0.00000000E+00
  0.00000000E+00  0.00000000E+00  0.00000000E+00
  0.00000000E+00  0.00000000E+00  0.00000000E+00
  0.00000000E+00  0.00000000E+00  0.00000000E+00
  0.00000000E+00  0.00000000E+00  0.00000000E+00
  0.00000000E+00  0.00000000E+00  0.00000000E+00
  0.00000000E+00  0.00000000E+00  0.00000000E+00
  0.00000000E+00  0.00000000E+00  0.00000000E+00
  0.00000000E+00  0.00000000E+00  0.00000000E+00
  0.00000000E+00  0.00000000E+00  0.00000000E+00
  0.00000000E+00  0.00000000E+00  0.00000000E+00
  0.00000000E+00  0.00000000E+00  0.00000000E+00
  0.00000000E+00  0.00000000E+00  0.00000000E+00
  0.00000000E+00  0.00000000E+00  0.00000000E+00
  0.00000000E+00  0.00000000E+00  0.00000000E+00
  0.00000000E+00  0.00000000E+00  0.00000000E+00
  0.00000000E+00  0.00000000E+00  0.00000000E+00
  0.00000000E+00  0.00000000E+00  0.00000000E+00
  0.00000000E+00  0.00000000E+00  0.00000000E+00
  0.00000000E+00  0.00000000E+00  0.00000000E+00
  0.00000000E+00  0.00000000E+00  0.00000000E+00
  0.00000000E+00  0.00000000E+00  0.00000000E+00
  0.00000000E+00  0.00000000E+00  0.00000000E+00
  0.00000000E+00  0.00000000E+00  0.00000000E+00
  0.00000000E+00  0.00000000E+00  0.00000000E+00
  0.00000000E+00  0.00000000E+00  0.00000000E+00
  0.00000000E+00  0.00000000E+00  0.00000000E+00
  0.00000000E+00  0.00000000E+00  0.00000000E+00
  0.00000000E+00  0.00000000E+00  0.00000000E+00
  0.00000000E+00  0.00000000E+00  0.00000000E+00
  0.00000000E+00  0.00000000E+00  0.00000000E+00
  0.00000000E+00  0.00000000E+00  0.00000000E+00
  0.00000000E+00  0.00000000E+00  0.00000000E+00
  0.00000000E+00  0.00000000E+00  0.00000000E+00
  0.00000000E+00  0.00000000E+00  0.00000000E+00
  0.00000000E+00  0.00000000E+00  0.00000000E+00
  0.00000000E+00  0.00000000E+00  0.00000000E+00
  0.00000000E+00  0.00000000E+00  0.00000000E+00
  0.00000000E+00  0.00000000E+00  0.00000000E+00
  0.00000000E+00  0.00000000E+00  0.00000000E+00
  0.00000000E+00  0.00000000E+00  0.00000000E+00
  0.00000000E+00  0.00000000E+00  0.00000000E+00
  0.00000000E+00  0.00000000E+00  0.00000000E+00
  0.00000000E+00  0.00000000E+00  0.00000000E+00
  0.00000000E+00  0.00000000E+00  0.00000000E+00
  0.00000000E+00  0.00000000E+00  0.00000000E+00
  0.00000000E+00  0.00000000E+00  0.00000000E+00
  0.00000000E+00  0.00000000E+00  0.00000000E+00
  0.00000000E+00  0.00000000E+00  0.00000000E+00
  0.00000000E+00  0.00000000E+00  0.00000000E+00
  0.00000000E+00  0.00000000E+00  0.00000000E+00
  0.00000000E+00  0.00000000E+00  0.00000000E+00
  0.00000000E+00  0.00000000E+00  0.00000000E+00
  0.00000000E+00  0.00000000E+00  0.00000000E+00
  0.00000000E+00  0.00000000E+00  0.00000000E+00
  0.00000000E+00  0.00000000E+00  0.00000000E+00
  0.00000000E+00  0.00000000E+00  0.00000000E+00
  0.00000000E+00  0.00000000E+00  0.00000000E+00
  0.00000000E+00  0.00000000E+00  0.00000000E+00
  0.00000000E+00  0.00000000E+00  0.00000000E+00
  0.00000000E+00  0.00000000E+00  0.00000000E+00
  0.00000000E+00  0.00000000E+00  0.00000000E+00
  0.00000000E+00  0.00000000E+00  0.00000000E+00
  0.00000000E+00  0.00000000E+00  0.00000000E+00
  0.00000000E+00  0.00000000E+00  0.00000000E+00
  0.00000000E+00  0.00000000E+00  0.00000000E+00
  0.00000000E+00  0.00000000E+00  0.00000000E+00
  0.00000000E+00  0.00000000E+00  0.00000000E+00
  0.00000000E+00  0.00000000E+00  0.00000000E+00
  0.00000000E+00  0.00000000E+00  0.00000000E+00
  0.00000000E+00  0.00000000E+00  0.00000000E+00
  0.00000000E+00  0.00000000E+00  0.00000000E+00
  0.00000000E+00  0.00000000E+00  0.00000000E+00
  0.00000000E+00  0.00000000E+00  0.00000000E+00
  0.00000000E+00  0.00000000E+00  0.00000000E+00
  0.00000000E+00  0.00000000E+00  0.00000000E+00
  0.00000000E+00  0.00000000E+00  0.00000000E+00
  0.00000000E+00  0.00000000E+00  0.00000000E+00
  0.00000000E+00  0.00000000E+00  0.00000000E+00
  0.00000000E+00  0.00000000E+00  0.00000000E+00
  0.00000000E+00  0.00000000E+00  0.00000000E+00
  0.00000000E+00  0.00000000E+00  0.00000000E+00
  0.00000000E+00  0.00000000E+00  0.00000000E+00
  0.00000000E+00  0.00000000E+00  0.00000000E+00
  0.00000000E+00  0.00000000E+00  0.00000000E+00
  0.00000000E+00  0.00000000E+00  0.00000000E+00
  0.00000000E+00  0.00000000E+00  0.00000000E+00
  0.00000000E+00  0.00000000E+00  0.00000000E+00
  0.00000000E+00  0.00000000E+00  0.00000000E+00
  0.00000000E+00  0.00000000E+00  0.00000000E+00
  0.00000000E+00  0.00000000E+00  0.00000000E+00
  0.00000000E+00  0.00000000E+00  0.00000000E+00
  0.00000000E+00  0.00000000E+00  0.00000000E+00
  0.00000000E+00  0.00000000E+00  0.00000000E+00
  0.00000000E+00  0.00000000E+00  0.00000000E+00
  0.00000000E+00  0.00000000E+00  0.00000000E+00
  0.00000000E+00  0.00000000E+00  0.00000000E+00
  0.00000000E+00  0.00000000E+00  0.00000000E+00
  0.00000000E+00  0.00000000E+00  0.00000000E+00
  0.00000000E+00  0.00000000E+00  0.00000000E+00
  0.00000000E+00  0.00000000E+00  0.00000000E+00
  0.00000000E+00  0.00000000E+00  0.00000000E+00
  0.00000000E+00  0.00000000E+00  0.00000000E+00
  0.00000000E+00  0.00000000E+00  0.00000000E+00
  0.00000000E+00  0.00000000E+00  0.00000000E+00
  0.00000000E+00  0.00000000E+00  0.00000000E+00
  0.00000000E+00  0.00000000E+00  0.00000000E+00
  0.00000000E+00  0.00000000E+00  0.00000000E+00
  0.00000000E+00  0.00000000E+00  0.00000000E+00
  0.00000000E+00  0.00000000E+00  0.00000000E+00
  0.00000000E+00  0.00000000E+00  0.00000000E+00
  0.00000000E+00  0.00000000E+00  0.00000000E+00
  0.00000000E+00  0.00000000E+00  0.00000000E+00
  0.00000000E+00  0.00000000E+00  0.00000000E+00
  0.00000000E+00  0.00000000E+00  0.00000000E+00
  0.00000000E+00  0.00000000E+00  0.00000000E+00
  0.00000000E+00  0.00000000E+00  0.00000000E+00
  0.00000000E+00  0.00000000E+00  0.00000000E+00
  0.00000000E+00  0.00000000E+00  0.00000000E+00
  0.00000000E+00  0.00000000E+00  0.00000000E+00
  0.00000000E+00  0.00000000E+00  0.00000000E+00
  0.00000000E+00  0.00000000E+00  0.00000000E+00
  0.00000000E+00  0.00000000E+00  0.00000000E+00
